32155
1 0 0 0 1 0 0 0 1 0 0 0 1 1 0 0 0 0 0 1 0 1 0 0 0 1 0 1 0 0
27 19 21 27 21 12 21 27 27 27 4 19 13 13 19 27 13 13 27 0 27 21 21 0 13 27 27 19 4 21 19 19 4 21 27 12 8 8 27 21 25 8 12 4 8 19 13 21 19 19 0 21 21 21 8 12 25 8 27 25 4 0 25 8 13 25 0 19 19 25 25 12 19 8 13 13 8 0 8 21 13 0 8 25 4 13 19 0 27 25 27 19 25 25 0 13 27 12 0 19 19 21 25 25 4 0 4 27 27 13 19 4 27 12 12 8 27 25 0 8 8 25 0 19 4 21 21 12 19 0 27 21 25 8 13 8 13 13 0 13 12 27 12 25 25 0 0 21 27 25 0 0 13 0 8 12 0 21 13 13 13 27 13 0 0 27 13 4 13 21 13 8 19 8 4 21 0 13 4 8 21 21 21 19 12 8 12 13 0 21 21 21 19 4 25 12 25 21 8 19
